Primitive Cell                          
   1.00000000000000     
     2.1161244422616479    1.2217450163785086    3.6256424908385623
    -2.1161244422616479    1.2217450163785084    3.6256424908385623
    -0.0000000000000000   -2.4434900327570177    3.6256424908385623
   Ge   Te
     1     1
Direct
  0.9955276369588851  0.9955276369588851  0.9955276369588851
  0.5254723630411086  0.5254723630411086  0.5254723630411086
 
  0.00000000E+00  0.00000000E+00  0.00000000E+00
  0.00000000E+00  0.00000000E+00  0.00000000E+00
